135
0 35 88 93 28 87 36 133 37 66 
65 73 117 110 22 126 59 42 99 5 
85 6 125 52 97 10 120 80 60 54 
86 82 72 106 58 92 75 17 61 118 
128 7 102 69 23 9 43 13 122 51 
4 114 119 134 95 71 1 127 70 11 
47 77 132 111 98 68 63 53 84 94 
24 48 89 103 74 45 121 55 44 130 
21 115 81 79 12 46 25 96 41 30 
83 20 39 112 123 26 67 101 40 27 
131 34 3 16 33 57 76 14 62 107 
49 116 31 91 19 100 78 56 38 8 
104 108 124 18 109 29 64 105 15 113 
129 2 32 90 50 
